c 
c G(k,n,p) graph
c graph gen seed     : 378
c number of vertices : 20
c max number of edges: 400
c number of classes  : 2
c edge density       : 0.600000
c edge probability   : 1.200000
c data structure     : dense
c
c           Graph Stats
c number of vertices  : 20
c nonisolated vertices: 20
c number of edges     : 99
c edge density        : 0.521053
c max degree          : 11
c avg degree          : 9.90
c min degree          : 9
p col 20 99
e 1 3
e 1 4
e 1 7
e 1 8
e 1 9
e 1 11
e 1 15
e 1 16
e 1 19
e 2 3
e 2 4
e 2 7
e 2 8
e 2 9
e 2 11
e 2 15
e 2 16
e 2 19
e 3 5
e 3 6
e 3 10
e 3 12
e 3 13
e 3 14
e 3 17
e 3 18
e 3 20
e 4 5
e 4 6
e 4 10
e 4 12
e 4 13
e 4 14
e 4 17
e 4 18
e 4 20
e 5 7
e 5 8
e 5 9
e 5 11
e 5 15
e 5 16
e 5 19
e 6 7
e 6 8
e 6 9
e 6 11
e 6 15
e 6 16
e 6 19
e 7 10
e 7 12
e 7 13
e 7 14
e 7 17
e 7 18
e 7 20
e 8 10
e 8 12
e 8 13
e 8 14
e 8 17
e 8 18
e 8 20
e 9 10
e 9 12
e 9 13
e 9 14
e 9 17
e 9 18
e 9 20
e 10 11
e 10 15
e 10 16
e 10 19
e 11 12
e 11 13
e 11 14
e 11 17
e 11 18
e 11 20
e 12 15
e 12 16
e 12 19
e 13 15
e 13 16
e 13 19
e 14 15
e 14 16
e 14 19
e 15 17
e 15 18
e 15 20
e 16 17
e 16 18
e 16 20
e 17 19
e 18 19
e 19 20
